[runlim] version:		2.0.0rc12
[runlim] host:			ap-Precision-7550
[runlim] time limit:		311040000 seconds
[runlim] real time limit:	600 seconds
[runlim] space limit:		14000 MB
[runlim] argv[0]:		python3
[runlim] argv[1]:		-u
[runlim] argv[2]:		mip_no.py
[runlim] argv[3]:		TUD200.1
[runlim] start:			Wed Mar 25 02:55:08 2026
[runlim] child:			68234
--- Building MIP model for 200 variables ---
--- Solving with CPLEX MIP ---
Version identifier: 22.1.1.0 | 2022-11-28 | 9160aff4d
CPXPARAM_Read_DataCheck                          1
CPXPARAM_MIP_Tolerances_MIPGap                   0
Legacy callback                                  i
Tried aggregator 1 time.
MIP Presolve eliminated 163964 rows and 71 columns.
MIP Presolve modified 26608 coefficients.
Reduced MIP has 28389 rows, 8105 columns, and 224962 nonzeros.
Reduced MIP has 8105 binaries, 0 generals, 0 SOSs, and 0 indicators.
Presolve time = 0.56 sec. (592.35 ticks)
Probing fixed 75 vars, tightened 0 bounds.
Probing changed sense of 3993 constraints.
Probing time = 0.04 sec. (14.87 ticks)
Tried aggregator 1 time.
MIP Presolve eliminated 10745 rows and 4066 columns.
MIP Presolve modified 15200 coefficients.
Reduced MIP has 17644 rows, 4039 columns, and 237050 nonzeros.
Reduced MIP has 4039 binaries, 0 generals, 0 SOSs, and 0 indicators.
Presolve time = 0.69 sec. (937.52 ticks)
Probing time = 0.01 sec. (2.97 ticks)
Tried aggregator 1 time.
Detecting symmetries...
MIP Presolve eliminated 2 rows and 0 columns.
Reduced MIP has 17642 rows, 4037 columns, and 237044 nonzeros.
Reduced MIP has 4037 binaries, 0 generals, 0 SOSs, and 0 indicators.
Presolve time = 0.20 sec. (266.48 ticks)
Probing time = 0.02 sec. (3.06 ticks)
Clique table members: 19738.
MIP emphasis: balance optimality and feasibility.
MIP search method: dynamic search.
Parallel mode: deterministic, using up to 12 threads.
Root relaxation solution time = 2.34 sec. (1743.15 ticks)

        Nodes                                         Cuts/
   Node  Left     Objective  IInf  Best Integer    Best Bound    ItCnt     Gap

*     0+    0                           24.0000        0.0000           100.00%
      0     0       12.0000   730       24.0000       12.0000       18   50.00%

Num labels used: 24
Current incumbent solution: {16, 30, 44, 58, 86, 128, 156, 240, 254, 268, 282, 296, 324, 366, 394, 414, 470, 478, 498, 526, 652, 708, 736, 764}}
Time taken: 5.05s

Num labels used: 24
Current incumbent solution: {16, 30, 44, 58, 86, 128, 156, 240, 254, 268, 282, 296, 324, 366, 394, 414, 470, 478, 498, 526, 652, 708, 736, 764}}
Time taken: 5.06s
[runlim] sample:		25.58 time, 10.01 real, 304 MB, 1.80 load
*     0+    0                           22.0000       12.0000            45.45%
*     0+    0                           12.0000       12.0000             0.00%
      0     0        cutoff             12.0000       12.0000       18    0.00%
Elapsed time = 11.69 sec. (12767.91 ticks, tree = 0.01 MB, solutions = 3)

Root node processing (before b&c):
  Real time             =   11.69 sec. (12768.33 ticks)
Parallel b&c, 12 threads:
  Real time             =    0.00 sec. (0.00 ticks)
  Sync time (average)   =    0.00 sec.
  Wait time (average)   =    0.00 sec.
                          ------------
Total (root+branch&cut) =   11.69 sec. (12768.33 ticks)

==============================
FINAL INCUMBENT SOLUTION:
{708, 470, 554, 792, 380, 142, 324, 86, 142, 380, 324, 86, 30, 268, 142, 380, 554, 792, 30, 268, 470, 708, 666, 428, 554, 792, 142, 380, 666, 428, 554, 792, 470, 708, 666, 428, 792, 554, 708, 470, 708, 470, 554, 792, 666, 428, 708, 470, 554, 792, 30, 268, 30, 268, 792, 554, 380, 142, 792, 554, 708, 470, 792, 554, 708, 470, 666, 428, 86, 324, 428, 666, 142, 380, 142, 380, 470, 708, 142, 380, 142, 380, 666, 428, 470, 708, 470, 708, 268, 30, 142, 380, 708, 470, 324, 86, 30, 268, 792, 554, 30, 268, 666, 428, 142, 380, 554, 792, 268, 30, 470, 708, 30, 268, 554, 792, 324, 86, 30, 268, 380, 142, 554, 792, 30, 268, 666, 428, 142, 380, 380, 142, 324, 86, 268, 30, 142, 380, 380, 142, 324, 86, 666, 428, 30, 268, 324, 86, 268, 30, 30, 268, 324, 86, 666, 428, 86, 324, 268, 30, 708, 470, 428, 666, 792, 554, 666, 428, 792, 554, 708, 470, 792, 554, 268, 30, 708, 470, 792, 554, 86, 324, 792, 554, 30, 268, 324, 86, 268, 30, 666, 428, 30, 268, 324, 86, 666, 428, 380, 142}
Number of labels used: 12
Total time: 12.42s
Memory used: 320.41 MB
==============================
[runlim] end:			Wed Mar 25 02:55:20 2026
[runlim] status:		ok
[runlim] result:		0
[runlim] children:		1
[runlim] processes:		2
[runlim] real:			12.49 seconds
[runlim] time:			30.39 seconds
[runlim] space:			319 MB
[runlim] load:			1.86 maximum
[runlim] samples:		125
